job_count = 25 ;
duration = [|3, 5, 4, 7, 2|4, 22, 12, 5, 9|8, 19, 3, 9, 8|18, 6, 3, 11, 2|21, 5, 2, 16, 2|11, 20, 10, 15, 6|17, 14, 4, 14, 3|7, 21, 14, 5, 6|7, 2, 14, 17, 3|16, 4, 3, 11, 5|24, 6, 3, 3, 12|15, 16, 5, 2, 12|17, 3, 6, 10, 4|8, 5, 10, 5, 14|7, 10, 7, 15, 5|7, 20, 13, 13, 13|11, 16, 17, 3, 14|13, 21, 3, 11, 3|11, 12, 6, 10, 3|18, 7, 18, 10, 11|24, 13, 13, 9, 6|3, 21, 10, 8, 14|2, 2, 16, 14, 12|3, 17, 5, 13, 4|4, 18, 8, 4, 3|] ;
machine_count = 5 ;
cost = [|31, 35, 39, 39, 42|23, 34, 35, 27, 30|20, 22, 30, 30, 52|23, 31, 26, 38, 52|31, 29, 22, 32, 29|30, 34, 38, 34, 46|23, 34, 39, 45, 51|22, 20, 33, 40, 34|19, 22, 34, 30, 36|21, 31, 31, 26, 31|23, 22, 25, 36, 27|20, 27, 36, 39, 51|30, 24, 34, 42, 47|29, 35, 25, 44, 53|18, 24, 30, 24, 33|23, 29, 32, 24, 43|24, 26, 27, 34, 48|19, 21, 36, 43, 38|26, 29, 21, 29, 39|31, 34, 20, 28, 37|20, 32, 22, 34, 33|25, 20, 27, 36, 39|19, 32, 36, 43, 37|19, 27, 38, 35, 53|20, 24, 34, 45, 46|] ;
deadline = [33, 33, 33, 33, 33, 33, 33, 33, 33, 33, 33, 33, 33, 33, 33, 33, 33, 33, 33, 33, 33, 33, 33, 33, 33] ;
release = [0, 0, 0, 0, 0, 0, 0, 0, 0, 0, 0, 0, 0, 0, 0, 0, 0, 0, 0, 0, 0, 0, 0, 0, 0] ;
resource = [|2, 2, 2, 2, 2|1, 1, 1, 1, 1|7, 7, 7, 7, 7|7, 7, 7, 7, 7|4, 4, 4, 4, 4|1, 1, 1, 1, 1|8, 8, 8, 8, 8|5, 5, 5, 5, 5|3, 3, 3, 3, 3|1, 1, 1, 1, 1|9, 9, 9, 9, 9|1, 1, 1, 1, 1|7, 7, 7, 7, 7|2, 2, 2, 2, 2|9, 9, 9, 9, 9|8, 8, 8, 8, 8|5, 5, 5, 5, 5|8, 8, 8, 8, 8|8, 8, 8, 8, 8|2, 2, 2, 2, 2|6, 6, 6, 6, 6|2, 2, 2, 2, 2|9, 9, 9, 9, 9|2, 2, 2, 2, 2|3, 3, 3, 3, 3|] ;
capacities = [10, 10, 10, 10, 10] ;
